Data path: /scratch/opt/lxu/CFLG/benchmarks/random_B
Instance: r_30_0.2_75.txt
Result path: /scratch/opt/lxu/CFLG/results/random_B
Solver: Gurobi
Time limit: 7200
Formulation: LEFPV
Cover: Large
julia --project=. src/main.jl /scratch/opt/lxu/CFLG/benchmarks/random_B r_30_0.2_75.txt /scratch/opt/lxu/CFLG/results/random_B Gurobi 7200 LEFPV Large
The latest version of Julia in the `release` channel is 1.11.5+0.x64.linux.gnu. You currently have `1.11.4+0.x64.linux.gnu` installed. Run:

  juliaup update

in your terminal shell to install Julia 1.11.5+0.x64.linux.gnu and update the `release` channel to that version.
/scratch/opt/lxu/CFLG/benchmarks/random_B Gurobi 7200.0 /scratch/opt/lxu/CFLG/results/random_B r_30_0.2_75.txt LEFPV Large
/scratch/opt/lxu/CFLG/benchmarks/random_B/r_30_0.2_75.txt

 read graph
data loaded

problem_graph/original graph: node: 30/30 edge: 75/75 dlt: 1.338331712771451 break_avg_len: 0.6691658563857255 break_max_len: 0.9947526277799718Set parameter TokenServer to value "solice01.zib.de"
Set parameter Threads to value 1
Set parameter OutputFlag to value 1
Gurobi Optimizer version 12.0.1 build v12.0.1rc0 (linux64 - "Debian GNU/Linux 12 (bookworm)")

CPU model: Intel(R) Xeon(R) Gold 5122 CPU @ 3.60GHz, instruction set [SSE2|AVX|AVX2|AVX512]
Thread count: 8 physical cores, 16 logical processors, using up to 1 threads

Non-default parameters:
Threads  1

Optimize a model with 105 rows, 225 columns and 375 nonzeros
Model fingerprint: 0xdc7b3391
Coefficient statistics:
  Matrix range     [1e+00, 1e+00]
  Objective range  [1e+00, 1e+00]
  Bounds range     [1e+00, 1e+00]
  RHS range        [0e+00, 0e+00]
Presolve removed 105 rows and 225 columns
Presolve time: 0.02s
Presolve: All rows and columns removed
Iteration    Objective       Primal Inf.    Dual Inf.      Time
       0   -0.0000000e+00   0.000000e+00   0.000000e+00      0s

Solved in 0 iterations and 0.02 seconds (0.00 work units)
Optimal objective -0.000000000e+00

User-callback calls 35, time in user-callback 0.01 sec
elapsed CPU time: 1.29439 seconds
Set parameter TokenServer to value "solice01.zib.de"
Set parameter Threads to value 1
Set parameter OutputFlag to value 1
Set parameter MIPGap to value 0.0001
Set parameter MIPGapAbs to value 0.999998
Set parameter TimeLimit to value 7198.70561

 more cuts:falsefalse
0 0
formulation:LEFPV0 75 30
Set parameter PreCrush to value 1

 model loaded

Gurobi Optimizer version 12.0.1 build v12.0.1rc0 (linux64 - "Debian GNU/Linux 12 (bookworm)")

CPU model: Intel(R) Xeon(R) Gold 5122 CPU @ 3.60GHz, instruction set [SSE2|AVX|AVX2|AVX512]
Thread count: 8 physical cores, 16 logical processors, using up to 1 threads

Non-default parameters:
TimeLimit  7198.70561
MIPGapAbs  0.999998
PreCrush  1
Threads  1

Optimize a model with 5374 rows, 2705 columns and 15897 nonzeros
Model fingerprint: 0xc0a5d82d
Variable types: 180 continuous, 2525 integer (2525 binary)
Coefficient statistics:
  Matrix range     [1e-06, 2e+00]
  Objective range  [1e+00, 1e+00]
  Bounds range     [3e-01, 1e+00]
  RHS range        [3e-01, 8e+00]
Found heuristic solution: objective 25.0000000
Presolve removed 896 rows and 110 columns
Presolve time: 0.05s
Presolved: 4478 rows, 2595 columns, 14764 nonzeros
Variable types: 105 continuous, 2490 integer (2490 binary)

Root relaxation: objective 6.664277e-01, 2198 iterations, 0.07 seconds (0.13 work units)

    Nodes    |    Current Node    |     Objective Bounds      |     Work
 Expl Unexpl |  Obj  Depth IntInf | Incumbent    BestBd   Gap | It/Node Time

     0     0    0.66643    0  261   25.00000    0.66643  97.3%     -    0s
H    0     0                      12.0000000    0.66643  94.4%     -    0s
H    0     0                       7.0000000    0.66643  90.5%     -    0s
elapsed CPU time: 1.3872066877939377e13 seconds
     0     0    1.21674    0  323    7.00000    1.21674  82.6%     -    1s
elapsed CPU time: 0.017756 seconds
     0     0    1.31508    0  329    7.00000    1.31508  81.2%     -    1s
elapsed CPU time: 0.017184 seconds
     0     0    1.31579    0  352    7.00000    1.31579  81.2%     -    1s
elapsed CPU time: 0.03449 seconds
     0     0    1.31579    0  352    7.00000    1.31579  81.2%     -    1s
elapsed CPU time: 0.01726 seconds
     0     0    1.44664    0  319    7.00000    1.44664  79.3%     -    1s
H    0     0                       6.0000000    1.44751  75.9%     -    1s
elapsed CPU time: 0.024051 seconds
     0     0    1.46007    0  314    6.00000    1.46007  75.7%     -    1s
elapsed CPU time: 0.01681 seconds
     0     0    1.46268    0  313    6.00000    1.46268  75.6%     -    1s
elapsed CPU time: 0.021788 seconds
     0     0    1.46268    0  315    6.00000    1.46268  75.6%     -    1s
elapsed CPU time: 0.016048 seconds
     0     0    1.79283    0  333    6.00000    1.79283  70.1%     -    1s
H    0     0                       5.0000000    1.80092  64.0%     -    1s
elapsed CPU time: 0.022928 seconds
     0     0    1.81019    0  322    5.00000    1.81019  63.8%     -    2s
elapsed CPU time: 0.022557 seconds
     0     0    1.81037    0  324    5.00000    1.81037  63.8%     -    2s
elapsed CPU time: 0.023996 seconds
     0     0    1.92458    0  318    5.00000    1.92458  61.5%     -    2s
elapsed CPU time: 0.021112 seconds
     0     0    1.92897    0  339    5.00000    1.92897  61.4%     -    2s
elapsed CPU time: 0.020139 seconds
     0     0    1.92897    0  358    5.00000    1.92897  61.4%     -    2s
elapsed CPU time: 0.020081 seconds
     0     0    1.92897    0  355    5.00000    1.92897  61.4%     -    2s
elapsed CPU time: 0.0202 seconds
     0     0    1.92897    0  318    5.00000    1.92897  61.4%     -    2s
elapsed CPU time: 0.020337 seconds
     0     0    1.92989    0  354    5.00000    1.92989  61.4%     -    2s
elapsed CPU time: 0.019923 seconds
     0     0    1.93243    0  345    5.00000    1.93243  61.4%     -    2s
elapsed CPU time: 0.020383 seconds
     0     0    1.93243    0  346    5.00000    1.93243  61.4%     -    2s
elapsed CPU time: 0.020103 seconds
     0     0    1.94855    0  316    5.00000    1.94855  61.0%     -    2s
elapsed CPU time: 0.020764 seconds
     0     0    1.94989    0  335    5.00000    1.94989  61.0%     -    4s
elapsed CPU time: 0.019912 seconds
     0     0    1.94989    0  334    5.00000    1.94989  61.0%     -    4s
elapsed CPU time: 0.019934 seconds
     0     0    1.95595    0  336    5.00000    1.95595  60.9%     -    4s
elapsed CPU time: 0.015785 seconds
     0     0    1.95595    0  335    5.00000    1.95595  60.9%     -    4s
elapsed CPU time: 0.019952 seconds
     0     0    1.95595    0  278    5.00000    1.95595  60.9%     -    4s
elapsed CPU time: 0.021176 seconds
elapsed CPU time: 0.021055 seconds
     0     2    1.95964    0  277    5.00000    1.95964  60.8%     -    5s
H   81    51                       4.0000000    2.04839  48.8%   162    5s
   715   383    3.00000   40  278    4.00000    2.33333  41.7%   107   10s
   725   390    2.50000   17  328    4.00000    2.33333  41.7%   105   15s
   734   396    3.00000   10  395    4.00000    2.33333  41.7%   104   20s
   752   409    2.53713   16  176    4.00000    2.33333  41.7%   155   25s
   865   407    2.62233   30  210    4.00000    2.35844  41.0%   180   30s
  1028   367    2.49772   16  239    4.00000    2.48571  37.9%   187   35s
  1169   341    2.75000   22  124    4.00000    2.65517  33.6%   187   40s
  1387   242     cutoff   16         4.00000    3.00000  25.0%   187   45s
  1561   164    3.00000   34  145    4.00000    3.00000  25.0%   193   50s
  1728    91     cutoff   22         4.00000    3.00000  25.0%   205   55s

Cutting planes:
  Learned: 1
  Cover: 24
  Implied bound: 9
  MIR: 8
  Flow cover: 9
  GUB cover: 61
  Zero half: 9
  RLT: 12
  Relax-and-lift: 1

Explored 1750 nodes (370430 simplex iterations) in 55.55 seconds (65.09 work units)
Thread count was 1 (of 16 available processors)

Solution count 9: 4 4 5 ... 25

Optimal solution found (tolerance 1.00e-04)
Best objective 4.000000000000e+00, best bound 4.000000000000e+00, gap 0.0000%

User-callback calls 17134, time in user-callback 2.01 sec

 sepatime1.387206687793991e13 26485 27
4.0Stat(MathOptInterface.OPTIMAL, 4.0, 4.0, 0.0, 1.387206687793991e13, 1.29439, 55.548064947128296, 1750, Main.CFLG.LEFPV, "", #undef)
